(set-logic QF_S)
(set-option :produce-models true)

(declare-fun var29 () String)
(declare-fun var30 () String)
(declare-fun var31 () String)
(declare-fun var33 () String)
(declare-fun var34 () String)
(declare-fun var35 () String)
(declare-fun var37 () String)
(declare-fun var39 () String)
(declare-fun var40 () String)
(declare-fun var41 () String)
(declare-fun var42 () String)

(assert (= true (str.in.re var37  (re.union  (re.++  (str.to.re "\x3c") (re.++ (re.*  (str.to.re " ") ) (re.++  (re.union  (str.to.re "S")  (str.to.re "s")) (re.++  (re.union  (str.to.re "C")  (str.to.re "c")) (re.++  (re.union  (str.to.re "R")  (str.to.re "r")) (re.++  (re.union  (str.to.re "I")  (str.to.re "i")) (re.++  (re.union  (str.to.re "P")  (str.to.re "p")) (re.++  (re.union  (str.to.re "T")  (str.to.re "t")) (re.++ (re.*  (str.to.re " ") ) (re.++  (str.to.re "\x3e") (re.++ (re.+  (re.union (re.range "a" "z") (re.union (re.range "A" "Z") (re.union (re.range "0" "9") (re.union  (str.to.re "\x28") (re.union  (str.to.re "\x29")  (str.to.re ";")))))) ) (re.++  (str.to.re "\x3c") (re.++  (str.to.re "/") (re.++ (re.*  (str.to.re " ") ) (re.++  (re.union  (str.to.re "S")  (str.to.re "s")) (re.++  (re.union  (str.to.re "C")  (str.to.re "c")) (re.++  (re.union  (str.to.re "R")  (str.to.re "r")) (re.++  (re.union  (str.to.re "I")  (str.to.re "i")) (re.++  (re.union  (str.to.re "P")  (str.to.re "p")) (re.++  (re.union  (str.to.re "T")  (str.to.re "t")) (re.++  (str.to.re " ")  (str.to.re "\x3e"))))))))))))))))))))))  (re.++  (str.to.re "\x3c") (re.++ (re.*  (str.to.re " ") ) (re.++  (re.union  (str.to.re "I")  (str.to.re "i")) (re.++  (re.union  (str.to.re "M")  (str.to.re "m")) (re.++  (re.union  (str.to.re "G")  (str.to.re "g")) (re.++  (str.to.re " ") (re.++  (re.union  (str.to.re "S")  (str.to.re "s")) (re.++  (re.union  (str.to.re "R")  (str.to.re "r")) (re.++  (re.union  (str.to.re "C")  (str.to.re "c")) (re.++  (str.to.re "=") (re.++  (re.union  (str.to.re "J")  (str.to.re "j")) (re.++  (re.union  (str.to.re "A")  (str.to.re "a")) (re.++  (re.union  (str.to.re "V")  (str.to.re "v")) (re.++  (re.union  (str.to.re "A")  (str.to.re "a")) (re.++  (re.union  (str.to.re "S")  (str.to.re "s")) (re.++  (re.union  (str.to.re "C")  (str.to.re "c")) (re.++  (re.union  (str.to.re "R")  (str.to.re "r")) (re.++  (re.union  (str.to.re "I")  (str.to.re "i")) (re.++  (re.union  (str.to.re "P")  (str.to.re "p")) (re.++  (re.union  (str.to.re "T")  (str.to.re "t")) (re.++  (str.to.re ":") (re.++ (re.+  (re.union (re.range "a" "z") (re.union (re.range "A" "Z") (re.union (re.range "0" "9") (re.union  (str.to.re "\x28") (re.union  (str.to.re "\x29")  (str.to.re ";")))))) ) (re.++ (re.*  (str.to.re " ") )  (str.to.re "\x3e"))))))))))))))))))))))))) ) ))
(assert (= true (= var30  var29 ) ))
(assert (= true (= (str.++ var31 " \x7d" ) var30 ) ))
(assert (= true (= (str.++ var33 var34 ) var31 ) ))
(assert (= true (= (str.++ var35 "content: " ) var33 ) ))
(assert (= true (= (str.++ var37 "," ) var35 ) ))
(assert (= true (= (str.++ var39 var40 ) var37 ) ))

(check-sat)
(get-model)